p edge 440 1760
e 1 77
e 1 181
e 1 210
e 1 263
e 2 162
e 2 295
e 2 301
e 2 398
e 3 28
e 3 69
e 3 207
e 3 265
e 4 159
e 4 309
e 4 411
e 4 437
e 5 18
e 5 29
e 5 263
e 5 315
e 6 44
e 6 108
e 6 320
e 6 420
e 7 29
e 7 164
e 7 243
e 7 387
e 8 88
e 8 122
e 8 192
e 8 301
e 9 72
e 9 179
e 9 311
e 9 400
e 10 15
e 10 256
e 10 268
e 10 420
e 11 208
e 11 267
e 11 373
e 11 376
e 12 140
e 12 230
e 12 265
e 12 370
e 13 125
e 13 138
e 13 150
e 13 206
e 14 18
e 14 152
e 14 176
e 14 304
e 15 165
e 15 301
e 15 332
e 15 439
e 16 30
e 16 71
e 16 88
e 16 130
e 17 106
e 17 116
e 17 349
e 17 373
e 18 224
e 18 277
e 18 385
e 18 390
e 19 61
e 19 123
e 19 311
e 19 337
e 20 90
e 20 227
e 20 336
e 20 382
e 21 22
e 21 73
e 21 163
e 21 185
e 22 104
e 22 127
e 22 281
e 22 438
e 23 122
e 23 187
e 23 310
e 23 362
e 24 71
e 24 197
e 24 272
e 24 426
e 25 88
e 25 195
e 25 394
e 25 438
e 26 27
e 26 131
e 26 325
e 26 427
e 27 218
e 27 365
e 27 375
e 27 409
e 28 46
e 28 159
e 28 178
e 28 353
e 29 147
e 29 181
e 29 187
e 29 194
e 30 206
e 30 207
e 30 275
e 30 277
e 31 10
e 31 59
e 31 429
e 31 433
e 32 8
e 32 18
e 32 51
e 32 307
e 33 109
e 33 281
e 33 411
e 33 412
e 34 194
e 34 202
e 34 418
e 34 432
e 35 33
e 35 127
e 35 188
e 35 433
e 36 95
e 36 153
e 36 276
e 36 335
e 37 53
e 37 101
e 37 131
e 37 240
e 38 110
e 38 186
e 38 250
e 38 251
e 39 2
e 39 68
e 39 315
e 39 396
e 40 42
e 40 61
e 40 314
e 40 428
e 41 19
e 41 47
e 41 49
e 41 137
e 42 97
e 42 211
e 42 325
e 42 424
e 43 7
e 43 218
e 43 221
e 43 229
e 44 59
e 44 126
e 44 210
e 44 438
e 45 104
e 45 119
e 45 338
e 45 340
e 46 26
e 46 144
e 46 286
e 46 394
e 47 158
e 47 179
e 47 274
e 47 383
e 48 84
e 48 130
e 48 312
e 48 408
e 49 75
e 49 239
e 49 398
e 49 401
e 50 38
e 50 101
e 50 170
e 50 392
e 51 119
e 51 219
e 51 237
e 51 380
e 52 102
e 52 155
e 52 426
e 52 429
e 53 162
e 53 234
e 53 282
e 53 358
e 54 14
e 54 81
e 54 279
e 54 311
e 55 140
e 55 178
e 55 360
e 55 428
e 56 63
e 56 204
e 56 221
e 56 410
e 57 48
e 57 75
e 57 94
e 57 199
e 58 73
e 58 223
e 58 232
e 58 283
e 59 173
e 59 203
e 59 351
e 59 392
e 60 122
e 60 138
e 60 276
e 60 426
e 61 52
e 61 182
e 61 215
e 61 238
e 62 68
e 62 133
e 62 192
e 62 352
e 63 222
e 63 261
e 63 298
e 63 373
e 64 95
e 64 99
e 64 311
e 64 315
e 65 16
e 65 162
e 65 277
e 65 406
e 66 37
e 66 192
e 66 283
e 66 379
e 67 100
e 67 285
e 67 357
e 67 411
e 68 12
e 68 219
e 68 299
e 68 301
e 69 103
e 69 142
e 69 211
e 69 308
e 70 60
e 70 93
e 70 319
e 70 378
e 71 294
e 71 297
e 71 305
e 71 366
e 72 100
e 72 364
e 72 368
e 72 417
e 73 63
e 73 225
e 73 298
e 73 320
e 74 140
e 74 248
e 74 284
e 74 392
e 75 121
e 75 357
e 75 391
e 75 406
e 76 106
e 76 131
e 76 379
e 76 404
e 77 32
e 77 124
e 77 130
e 77 205
e 78 126
e 78 215
e 78 232
e 78 332
e 79 53
e 79 56
e 79 255
e 79 356
e 80 9
e 80 96
e 80 310
e 80 314
e 81 86
e 81 298
e 81 323
e 81 399
e 82 49
e 82 63
e 82 263
e 82 398
e 83 94
e 83 191
e 83 255
e 83 418
e 84 127
e 84 207
e 84 234
e 84 399
e 85 184
e 85 223
e 85 275
e 85 374
e 86 31
e 86 55
e 86 274
e 86 380
e 87 18
e 87 70
e 87 296
e 87 403
e 88 49
e 88 71
e 88 240
e 88 385
e 89 93
e 89 117
e 89 138
e 89 295
e 90 254
e 90 298
e 90 316
e 90 347
e 91 183
e 91 274
e 91 372
e 91 384
e 92 6
e 92 44
e 92 249
e 92 254
e 93 99
e 93 151
e 93 212
e 93 264
e 94 44
e 94 178
e 94 277
e 94 313
e 95 96
e 95 125
e 95 211
e 95 379
e 96 212
e 96 265
e 96 332
e 96 371
e 97 22
e 97 326
e 97 353
e 97 434
e 98 30
e 98 125
e 98 194
e 98 288
e 99 131
e 99 252
e 99 286
e 99 419
e 100 6
e 100 209
e 100 344
e 100 389
e 101 247
e 101 276
e 101 280
e 101 359
e 102 88
e 102 190
e 102 241
e 102 281
e 103 116
e 103 164
e 103 238
e 103 347
e 104 157
e 104 226
e 104 252
e 104 342
e 105 201
e 105 397
e 105 436
e 105 437
e 106 79
e 106 150
e 106 291
e 106 412
e 107 63
e 107 117
e 107 253
e 107 278
e 108 100
e 108 275
e 108 282
e 108 311
e 109 93
e 109 225
e 109 236
e 109 308
e 110 41
e 110 355
e 110 364
e 110 378
e 111 65
e 111 73
e 111 351
e 111 439
e 112 64
e 112 151
e 112 188
e 112 305
e 113 94
e 113 151
e 113 153
e 113 315
e 114 100
e 114 130
e 114 368
e 114 403
e 115 76
e 115 163
e 115 250
e 115 325
e 116 33
e 116 155
e 116 165
e 116 276
e 117 4
e 117 255
e 117 379
e 117 407
e 118 39
e 118 121
e 118 322
e 118 400
e 119 143
e 119 204
e 119 263
e 119 407
e 120 162
e 120 189
e 120 244
e 120 329
e 121 85
e 121 113
e 121 243
e 121 300
e 122 142
e 122 176
e 122 376
e 122 435
e 123 228
e 123 298
e 123 326
e 123 388
e 124 137
e 124 172
e 124 344
e 124 350
e 125 22
e 125 99
e 125 224
e 125 314
e 126 54
e 126 90
e 126 174
e 126 388
e 127 40
e 127 209
e 127 306
e 127 327
e 128 41
e 128 158
e 128 320
e 128 365
e 129 245
e 129 269
e 129 335
e 129 339
e 130 32
e 130 57
e 130 379
e 130 417
e 131 52
e 131 146
e 131 276
e 131 293
e 132 92
e 132 227
e 132 230
e 132 440
e 133 265
e 133 297
e 133 341
e 133 371
e 134 30
e 134 180
e 134 289
e 134 401
e 135 51
e 135 134
e 135 379
e 135 430
e 136 162
e 136 222
e 136 315
e 136 339
e 137 67
e 137 108
e 137 110
e 137 256
e 138 148
e 138 148
e 138 224
e 138 367
e 139 43
e 139 53
e 139 72
e 139 158
e 140 122
e 140 196
e 140 236
e 140 251
e 141 60
e 141 71
e 141 126
e 141 255
e 142 12
e 142 111
e 142 254
e 142 432
e 143 95
e 143 262
e 143 262
e 143 338
e 144 1
e 144 124
e 144 162
e 144 324
e 145 63
e 145 142
e 145 274
e 145 304
e 146 17
e 146 376
e 146 408
e 146 434
e 147 45
e 147 83
e 147 259
e 147 306
e 148 18
e 148 192
e 148 230
e 148 413
e 149 222
e 149 258
e 149 273
e 149 415
e 150 18
e 150 27
e 150 96
e 150 303
e 151 86
e 151 156
e 151 240
e 151 429
e 152 243
e 152 404
e 152 413
e 152 418
e 153 57
e 153 58
e 153 257
e 153 315
e 154 30
e 154 98
e 154 188
e 154 333
e 155 22
e 155 107
e 155 183
e 155 211
e 156 43
e 156 141
e 156 204
e 156 324
e 157 6
e 157 39
e 157 52
e 157 87
e 158 131
e 158 286
e 158 352
e 158 431
e 159 110
e 159 115
e 159 117
e 159 304
e 160 123
e 160 141
e 160 213
e 160 237
e 161 52
e 161 80
e 161 129
e 161 406
e 162 57
e 162 206
e 162 240
e 162 371
e 163 84
e 163 139
e 163 321
e 163 410
e 164 50
e 164 169
e 164 378
e 164 423
e 165 156
e 165 326
e 165 351
e 165 422
e 166 89
e 166 296
e 166 349
e 166 386
e 167 14
e 167 131
e 167 155
e 167 438
e 168 144
e 168 283
e 168 369
e 168 377
e 169 71
e 169 129
e 169 258
e 169 298
e 170 110
e 170 188
e 170 242
e 170 247
e 171 112
e 171 156
e 171 212
e 171 390
e 172 115
e 172 129
e 172 191
e 172 320
e 173 9
e 173 171
e 173 399
e 173 439
e 174 51
e 174 98
e 174 151
e 174 194
e 175 80
e 175 113
e 175 177
e 175 366
e 176 58
e 176 168
e 176 210
e 176 332
e 177 207
e 177 298
e 177 340
e 177 356
e 178 202
e 178 316
e 178 353
e 178 378
e 179 9
e 179 56
e 179 59
e 179 438
e 180 17
e 180 25
e 180 196
e 180 249
e 181 85
e 181 229
e 181 286
e 181 307
e 182 69
e 182 167
e 182 209
e 182 235
e 183 78
e 183 114
e 183 248
e 183 319
e 184 54
e 184 73
e 184 175
e 184 436
e 185 46
e 185 370
e 185 401
e 185 406
e 186 4
e 186 133
e 186 158
e 186 234
e 187 142
e 187 343
e 187 364
e 187 368
e 188 80
e 188 134
e 188 255
e 188 273
e 189 22
e 189 218
e 189 240
e 189 335
e 190 106
e 190 198
e 190 400
e 190 435
e 191 13
e 191 43
e 191 122
e 191 261
e 192 62
e 192 243
e 192 277
e 192 373
e 193 93
e 193 103
e 193 131
e 193 403
e 194 35
e 194 98
e 194 360
e 194 416
e 195 94
e 195 147
e 195 296
e 195 338
e 196 151
e 196 165
e 196 212
e 196 265
e 197 53
e 197 92
e 197 344
e 197 404
e 198 20
e 198 378
e 198 389
e 198 429
e 199 41
e 199 228
e 199 272
e 199 295
e 200 222
e 200 285
e 200 377
e 200 391
e 201 112
e 201 211
e 201 386
e 201 433
e 202 225
e 202 270
e 202 272
e 202 318
e 203 67
e 203 84
e 203 402
e 203 432
e 204 23
e 204 27
e 204 33
e 204 181
e 205 62
e 205 188
e 205 279
e 205 325
e 206 35
e 206 50
e 206 144
e 206 353
e 207 105
e 207 156
e 207 174
e 207 240
e 208 93
e 208 99
e 208 259
e 208 302
e 209 11
e 209 77
e 209 280
e 209 290
e 210 77
e 210 141
e 210 165
e 210 401
e 211 10
e 211 89
e 211 106
e 211 375
e 212 87
e 212 207
e 212 274
e 212 395
e 213 170
e 213 320
e 213 395
e 213 424
e 214 11
e 214 62
e 214 353
e 214 416
e 215 135
e 215 154
e 215 191
e 215 250
e 216 190
e 216 314
e 216 375
e 216 392
e 217 29
e 217 56
e 217 225
e 217 260
e 218 113
e 218 176
e 218 274
e 218 358
e 219 350
e 219 359
e 219 414
e 219 434
e 220 74
e 220 119
e 220 156
e 220 436
e 221 37
e 221 157
e 221 161
e 221 269
e 222 1
e 222 264
e 222 367
e 222 374
e 223 25
e 223 172
e 223 398
e 223 399
e 224 22
e 224 86
e 224 341
e 224 408
e 225 76
e 225 364
e 225 391
e 225 402
e 226 141
e 226 211
e 226 315
e 226 358
e 227 83
e 227 236
e 227 241
e 227 365
e 228 100
e 228 265
e 228 355
e 228 440
e 229 70
e 229 245
e 229 250
e 229 430
e 230 112
e 230 159
e 230 217
e 230 247
e 231 169
e 231 374
e 231 380
e 231 384
e 232 25
e 232 104
e 232 197
e 232 251
e 233 47
e 233 182
e 233 196
e 233 307
e 234 213
e 234 248
e 234 292
e 234 393
e 235 210
e 235 313
e 235 331
e 235 343
e 236 43
e 236 132
e 236 201
e 236 389
e 237 119
e 237 226
e 237 368
e 237 415
e 238 57
e 238 218
e 238 344
e 238 374
e 239 153
e 239 174
e 239 208
e 239 384
e 240 23
e 240 69
e 240 278
e 240 286
e 241 54
e 241 118
e 241 188
e 241 377
e 242 56
e 242 114
e 242 139
e 242 222
e 243 21
e 243 47
e 243 115
e 243 334
e 244 269
e 244 346
e 244 354
e 244 406
e 245 190
e 245 306
e 245 380
e 245 431
e 246 95
e 246 321
e 246 360
e 246 379
e 247 65
e 247 348
e 247 400
e 247 403
e 248 81
e 248 122
e 248 301
e 248 303
e 249 11
e 249 41
e 249 83
e 249 167
e 250 30
e 250 184
e 250 341
e 250 409
e 251 19
e 251 29
e 251 84
e 251 220
e 252 118
e 252 227
e 252 374
e 252 392
e 253 66
e 253 217
e 253 231
e 253 421
e 254 32
e 254 238
e 254 251
e 254 334
e 255 22
e 255 79
e 255 351
e 255 392
e 256 112
e 256 268
e 256 270
e 256 310
e 257 22
e 257 176
e 257 301
e 257 384
e 258 9
e 258 25
e 258 157
e 258 260
e 259 50
e 259 187
e 259 275
e 259 283
e 260 48
e 260 153
e 260 231
e 260 370
e 261 54
e 261 111
e 261 160
e 261 314
e 262 219
e 262 224
e 262 228
e 262 400
e 263 72
e 263 170
e 263 175
e 263 380
e 264 134
e 264 392
e 264 420
e 264 425
e 265 47
e 265 211
e 265 415
e 265 423
e 266 156
e 266 190
e 266 246
e 266 316
e 267 155
e 267 162
e 267 202
e 267 412
e 268 114
e 268 148
e 268 163
e 268 174
e 269 8
e 269 20
e 269 334
e 269 364
e 270 2
e 270 155
e 270 160
e 270 263
e 271 85
e 271 145
e 271 180
e 271 365
e 272 7
e 272 24
e 272 139
e 272 300
e 273 34
e 273 105
e 273 193
e 273 230
e 274 214
e 274 292
e 274 325
e 274 426
e 275 17
e 275 95
e 275 120
e 275 260
e 276 82
e 276 254
e 276 288
e 276 436
e 277 340
e 277 350
e 277 408
e 277 411
e 278 83
e 278 118
e 278 191
e 278 283
e 279 11
e 279 79
e 279 90
e 279 206
e 280 72
e 280 299
e 280 401
e 280 425
e 281 38
e 281 70
e 281 75
e 281 404
e 282 93
e 282 97
e 282 102
e 282 337
e 283 44
e 283 83
e 283 193
e 283 286
e 284 84
e 284 220
e 284 322
e 284 409
e 285 128
e 285 323
e 285 339
e 285 381
e 286 118
e 286 123
e 286 228
e 286 326
e 287 32
e 287 140
e 287 350
e 287 405
e 288 27
e 288 107
e 288 114
e 288 120
e 289 37
e 289 355
e 289 389
e 289 436
e 290 28
e 290 173
e 290 307
e 290 388
e 291 40
e 291 65
e 291 242
e 291 378
e 292 47
e 292 341
e 292 345
e 292 401
e 293 44
e 293 155
e 293 195
e 293 354
e 294 32
e 294 198
e 294 365
e 294 414
e 295 52
e 295 77
e 295 313
e 295 318
e 296 258
e 296 326
e 296 339
e 296 350
e 297 49
e 297 70
e 297 197
e 297 369
e 298 46
e 298 106
e 298 156
e 298 183
e 299 132
e 299 250
e 299 256
e 299 372
e 300 94
e 300 122
e 300 277
e 300 320
e 301 53
e 301 212
e 301 293
e 301 341
e 302 6
e 302 13
e 302 208
e 302 264
e 303 5
e 303 52
e 303 130
e 303 208
e 304 39
e 304 244
e 304 247
e 304 333
e 305 41
e 305 171
e 305 205
e 305 357
e 306 21
e 306 174
e 306 267
e 306 374
e 307 177
e 307 260
e 307 315
e 307 371
e 308 36
e 308 182
e 308 329
e 308 350
e 309 223
e 309 320
e 309 421
e 309 438
e 310 78
e 310 184
e 310 199
e 310 271
e 311 20
e 311 194
e 311 403
e 311 422
e 312 18
e 312 72
e 312 325
e 312 409
e 313 85
e 313 147
e 313 172
e 313 333
e 314 4
e 314 186
e 314 205
e 314 419
e 315 102
e 315 149
e 315 301
e 315 336
e 316 60
e 316 253
e 316 275
e 316 387
e 317 79
e 317 206
e 317 357
e 317 363
e 318 128
e 318 246
e 318 393
e 318 393
e 319 180
e 319 195
e 319 272
e 319 287
e 320 182
e 320 284
e 320 364
e 320 368
e 321 164
e 321 266
e 321 297
e 321 383
e 322 15
e 322 20
e 322 166
e 322 265
e 323 37
e 323 66
e 323 148
e 323 251
e 324 19
e 324 254
e 324 278
e 324 335
e 325 9
e 325 80
e 325 291
e 325 301
e 326 113
e 326 237
e 326 270
e 326 333
e 327 154
e 327 191
e 327 320
e 327 390
e 328 236
e 328 296
e 328 309
e 328 399
e 329 138
e 329 142
e 329 188
e 329 239
e 330 61
e 330 137
e 330 171
e 330 425
e 331 4
e 331 36
e 331 65
e 331 402
e 332 133
e 332 170
e 332 361
e 332 402
e 333 172
e 333 321
e 333 337
e 333 420
e 334 24
e 334 44
e 334 216
e 334 385
e 335 7
e 335 34
e 335 245
e 335 382
e 336 52
e 336 55
e 336 70
e 336 324
e 337 260
e 337 272
e 337 361
e 337 371
e 338 166
e 338 190
e 338 267
e 338 425
e 339 66
e 339 120
e 339 142
e 339 383
e 340 232
e 340 329
e 340 388
e 340 408
e 341 5
e 341 12
e 341 82
e 341 233
e 342 160
e 342 200
e 342 214
e 342 372
e 343 95
e 343 268
e 343 290
e 343 329
e 344 20
e 344 22
e 344 24
e 344 343
e 345 6
e 345 28
e 345 209
e 345 404
e 346 79
e 346 244
e 346 360
e 346 423
e 347 75
e 347 161
e 347 386
e 347 429
e 348 59
e 348 80
e 348 327
e 348 401
e 349 104
e 349 153
e 349 342
e 349 379
e 350 51
e 350 59
e 350 96
e 350 154
e 351 26
e 351 35
e 351 63
e 351 100
e 352 107
e 352 146
e 352 212
e 352 259
e 353 33
e 353 299
e 353 371
e 353 414
e 354 8
e 354 127
e 354 149
e 354 318
e 355 57
e 355 148
e 355 357
e 355 433
e 356 160
e 356 327
e 356 353
e 356 435
e 357 91
e 357 118
e 357 234
e 357 341
e 358 4
e 358 13
e 358 181
e 358 278
e 359 308
e 359 316
e 359 392
e 359 396
e 360 10
e 360 115
e 360 347
e 360 419
e 361 182
e 361 187
e 361 215
e 361 327
e 362 6
e 362 10
e 362 185
e 362 244
e 363 38
e 363 44
e 363 357
e 363 389
e 364 74
e 364 316
e 364 321
e 364 361
e 365 66
e 365 175
e 365 222
e 365 266
e 366 61
e 366 138
e 366 418
e 366 440
e 367 9
e 367 30
e 367 148
e 367 330
e 368 163
e 368 195
e 368 320
e 368 394
e 369 103
e 369 146
e 369 195
e 369 397
e 370 297
e 370 307
e 370 326
e 370 416
e 371 53
e 371 67
e 371 91
e 371 287
e 372 14
e 372 17
e 372 210
e 372 310
e 373 247
e 373 353
e 373 393
e 373 410
e 374 179
e 374 196
e 374 274
e 374 396
e 375 8
e 375 29
e 375 391
e 375 417
e 376 94
e 376 221
e 376 267
e 376 420
e 377 45
e 377 110
e 377 223
e 377 427
e 378 175
e 378 381
e 378 404
e 378 429
e 379 158
e 379 291
e 379 336
e 379 337
e 380 25
e 380 122
e 380 221
e 380 303
e 381 267
e 381 321
e 381 437
e 381 439
e 382 20
e 382 86
e 382 362
e 382 435
e 383 173
e 383 295
e 383 347
e 383 429
e 384 64
e 384 184
e 384 254
e 384 303
e 385 43
e 385 87
e 385 313
e 385 351
e 386 87
e 386 95
e 386 288
e 386 291
e 387 70
e 387 235
e 387 277
e 387 315
e 388 3
e 388 136
e 388 185
e 388 217
e 389 125
e 389 216
e 389 266
e 389 343
e 390 2
e 390 172
e 390 357
e 390 431
e 391 104
e 391 238
e 391 268
e 391 433
e 392 4
e 392 102
e 392 262
e 392 323
e 393 121
e 393 320
e 393 329
e 393 330
e 394 142
e 394 261
e 394 334
e 394 360
e 395 5
e 395 229
e 395 328
e 395 376
e 396 29
e 396 176
e 396 223
e 396 323
e 397 4
e 397 31
e 397 34
e 397 197
e 398 136
e 398 307
e 398 332
e 398 341
e 399 168
e 399 184
e 399 236
e 399 395
e 400 51
e 400 121
e 400 213
e 400 311
e 401 154
e 401 198
e 401 214
e 401 260
e 402 41
e 402 107
e 402 255
e 402 294
e 403 14
e 403 183
e 403 269
e 403 375
e 404 27
e 404 45
e 404 196
e 404 324
e 405 112
e 405 147
e 405 352
e 405 379
e 406 92
e 406 146
e 406 314
e 406 318
e 407 54
e 407 122
e 407 170
e 407 249
e 408 98
e 408 140
e 408 403
e 408 404
e 409 16
e 409 265
e 409 375
e 409 412
e 410 28
e 410 147
e 410 253
e 410 433
e 411 26
e 411 72
e 411 181
e 411 252
e 412 30
e 412 148
e 412 258
e 412 264
e 413 43
e 413 234
e 413 277
e 413 440
e 414 35
e 414 141
e 414 302
e 414 322
e 415 52
e 415 132
e 415 299
e 415 412
e 416 4
e 416 88
e 416 295
e 416 437
e 417 58
e 417 58
e 417 128
e 417 245
e 418 155
e 418 268
e 418 279
e 418 361
e 419 74
e 419 131
e 419 354
e 419 376
e 420 58
e 420 197
e 420 213
e 420 310
e 421 50
e 421 51
e 421 61
e 421 284
e 422 13
e 422 108
e 422 317
e 422 350
e 423 28
e 423 96
e 423 143
e 423 270
e 424 129
e 424 284
e 424 296
e 424 421
e 425 16
e 425 47
e 425 100
e 425 271
e 426 26
e 426 54
e 426 97
e 426 143
e 427 53
e 427 139
e 427 181
e 427 181
e 428 8
e 428 125
e 428 238
e 428 381
e 429 61
e 429 104
e 429 161
e 429 362
e 430 111
e 430 118
e 430 286
e 430 387
e 431 129
e 431 180
e 431 319
e 431 408
e 432 170
e 432 224
e 432 331
e 432 388
e 433 44
e 433 79
e 433 161
e 433 307
e 434 15
e 434 141
e 434 222
e 434 324
e 435 13
e 435 217
e 435 308
e 435 424
e 436 214
e 436 232
e 436 263
e 436 333
e 437 74
e 437 231
e 437 284
e 437 316
e 438 23
e 438 171
e 438 209
e 438 409
e 439 168
e 439 181
e 439 216
e 439 279
e 440 10
e 440 215
e 440 289
e 440 377
